NAME : ../File/prFile/tspFile/tsp_file34.tsp.435.tour
COMMENT : Length = 435
COMMENT : Found by LKH-3 [Keld Helsgaun] Wed Jun 14 16:16:50 2023
TYPE : TOUR
DIMENSION : 30
TOUR_SECTION
1
22
20
9
30
27
21
19
11
16
10
17
2
12
13
15
28
8
14
18
5
25
4
7
3
24
26
6
23
29
-1
EOF
